c Random 3-SAT n=14 m=59 seed=123
p cnf 14 59
-1 5 -2 0
-14 1 -7 0
-3 -14 6 0
-7 13 2 0
-12 8 2 0
-13 -1 5 0
14 -1 5 0
-10 -11 9 0
13 -11 -9 0
-10 8 9 0
-13 11 3 0
5 3 6 0
-8 7 -10 0
14 11 6 0
-9 14 12 0
-8 -13 -11 0
3 9 8 0
8 4 1 0
7 -11 -14 0
12 2 -13 0
-2 9 12 0
8 1 -9 0
-3 -7 2 0
-4 -12 -2 0
7 -9 -5 0
13 -7 -6 0
11 3 10 0
11 -1 -6 0
12 -11 8 0
-9 6 -14 0
9 -12 6 0
-9 4 13 0
-9 -2 -4 0
-1 4 5 0
6 -9 -13 0
3 13 8 0
12 -10 -8 0
-8 -6 12 0
-8 6 11 0
-8 6 -4 0
-1 -7 13 0
9 7 -6 0
9 10 -6 0
-5 -2 8 0
-11 -8 5 0
-12 -8 9 0
1 -3 -2 0
-6 4 -10 0
-10 -13 5 0
-12 7 4 0
3 -7 6 0
3 4 -1 0
9 -4 5 0
9 -2 13 0
-8 -2 1 0
6 -3 -8 0
1 -4 13 0
11 -6 9 0
14 7 12 0
